N = 286;
M = 708;
Edge_Start = [1, 1, 2, 3, 3, 5, 5, 6, 7, 7, 8, 9, 9, 10, 11, 12, 14, 15, 15, 16, 17, 18, 19, 19, 20, 21, 21, 22, 23, 24, 25, 25, 26, 27, 28, 29, 30, 31, 32, 33, 34, 35, 35, 36, 37, 37, 38, 39, 39, 40, 41, 41, 42, 43, 44, 45, 46, 47, 48, 49, 50, 50, 51, 52, 53, 54, 54, 55, 56, 56, 57, 58, 58, 59, 60, 60, 62, 62, 64, 64, 65, 66, 67, 68, 68, 69, 70, 70, 72, 73, 73, 74, 75, 76, 77, 77, 78, 79, 79, 80, 81, 81, 82, 83, 83, 84, 85, 85, 86, 87, 88, 89, 89, 90, 91, 91, 93, 93, 94, 95, 96, 96, 97, 98, 98, 99, 100, 100, 101, 102, 102, 103, 104, 104, 105, 106, 106, 107, 108, 108, 109, 110, 110, 111, 112, 113, 114, 114, 115, 116, 117, 118, 120, 121, 121, 122, 123, 123, 125, 125, 126, 127, 127, 128, 129, 129, 130, 131, 131, 133, 133, 134, 135, 135, 136, 137, 137, 138, 139, 140, 141, 141, 142, 143, 144, 146, 146, 147, 148, 148, 149, 150, 150, 151, 152, 152, 153, 154, 154, 155, 156, 156, 157, 158, 158, 159, 160, 160, 161, 162, 162, 163, 164, 165, 166, 166, 168, 169, 169, 170, 171, 171, 172, 173, 173, 174, 175, 176, 177, 177, 178, 179, 179, 180, 181, 181, 182, 183, 183, 184, 185, 185, 187, 188, 189, 190, 191, 192, 193, 195, 196, 196, 197, 198, 198, 199, 200, 200, 201, 202, 202, 203, 204, 205, 206, 206, 207, 208, 208, 209, 210, 210, 211, 213, 214, 214, 216, 217, 217, 218, 219, 220, 221, 221, 222, 223, 224, 225, 225, 226, 227, 228, 229, 229, 231, 231, 232, 233, 233, 234, 235, 236, 237, 237, 238, 239, 240, 240, 241, 242, 243, 244, 245, 246, 246, 248, 248, 249, 250, 251, 252, 252, 253, 254, 255, 256, 256, 257, 258, 259, 260, 260, 261, 262, 262, 264, 265, 266, 267, 268, 269, 270, 271, 273, 275, 277, 278, 279, 280, 281, 282, 283, 284, 285, 2, 24, 3, 4, 26, 6, 28, 7, 8, 30, 9, 10, 32, 11, 12, 13, 15, 16, 38, 17, 18, 19, 20, 42, 21, 22, 44, 23, 46, 25, 26, 49, 27, 28, 29, 30, 31, 55, 33, 34, 35, 36, 59, 37, 38, 61, 39, 40, 63, 41, 42, 65, 43, 67, 45, 69, 47, 71, 72, 50, 51, 74, 52, 53, 54, 55, 78, 56, 57, 80, 58, 59, 82, 60, 61, 84, 63, 86, 65, 88, 66, 90, 68, 69, 92, 70, 71, 94, 73, 74, 97, 75, 76, 77, 78, 101, 79, 80, 103, 81, 82, 105, 83, 84, 107, 85, 86, 109, 87, 111, 89, 90, 113, 91, 92, 115, 94, 117, 95, 119, 97, 120, 98, 99, 122, 100, 101, 124, 102, 103, 126, 104, 105, 128, 106, 107, 130, 108, 109, 132, 110, 111, 134, 112, 113, 114, 115, 138, 116, 140, 118, 119, 121, 122, 145, 123, 124, 147, 126, 149, 127, 128, 151, 129, 130, 153, 131, 132, 155, 134, 157, 135, 136, 159, 137, 138, 161, 139, 163, 141, 142, 165, 143, 167, 168, 147, 170, 148, 149, 172, 150, 151, 174, 152, 153, 176, 154, 155, 178, 156, 157, 180, 158, 159, 182, 160, 161, 184, 162, 163, 186, 164, 188, 166, 167, 190, 169, 170, 193, 171, 172, 195, 173, 174, 197, 175, 176, 177, 178, 201, 179, 180, 203, 181, 182, 205, 183, 184, 207, 185, 186, 209, 211, 189, 190, 191, 215, 193, 194, 196, 197, 220, 198, 199, 222, 200, 201, 224, 202, 203, 226, 204, 205, 206, 207, 230, 208, 209, 232, 210, 211, 234, 212, 214, 215, 238, 217, 218, 241, 219, 243, 221, 222, 245, 223, 247, 225, 226, 249, 227, 251, 229, 230, 253, 232, 255, 233, 234, 257, 235, 236, 237, 238, 261, 239, 263, 241, 264, 242, 243, 244, 245, 246, 247, 270, 249, 272, 250, 274, 252, 253, 276, 254, 255, 256, 257, 280, 258, 259, 260, 261, 284, 262, 263, 286, 265, 266, 267, 268, 269, 270, 271, 272, 274, 276, 278, 279, 280, 281, 282, 283, 284, 285, 286];
Edge_End = [2, 24, 3, 4, 26, 6, 28, 7, 8, 30, 9, 10, 32, 11, 12, 13, 15, 16, 38, 17, 18, 19, 20, 42, 21, 22, 44, 23, 46, 25, 26, 49, 27, 28, 29, 30, 31, 55, 33, 34, 35, 36, 59, 37, 38, 61, 39, 40, 63, 41, 42, 65, 43, 67, 45, 69, 47, 71, 72, 50, 51, 74, 52, 53, 54, 55, 78, 56, 57, 80, 58, 59, 82, 60, 61, 84, 63, 86, 65, 88, 66, 90, 68, 69, 92, 70, 71, 94, 73, 74, 97, 75, 76, 77, 78, 101, 79, 80, 103, 81, 82, 105, 83, 84, 107, 85, 86, 109, 87, 111, 89, 90, 113, 91, 92, 115, 94, 117, 95, 119, 97, 120, 98, 99, 122, 100, 101, 124, 102, 103, 126, 104, 105, 128, 106, 107, 130, 108, 109, 132, 110, 111, 134, 112, 113, 114, 115, 138, 116, 140, 118, 119, 121, 122, 145, 123, 124, 147, 126, 149, 127, 128, 151, 129, 130, 153, 131, 132, 155, 134, 157, 135, 136, 159, 137, 138, 161, 139, 163, 141, 142, 165, 143, 167, 168, 147, 170, 148, 149, 172, 150, 151, 174, 152, 153, 176, 154, 155, 178, 156, 157, 180, 158, 159, 182, 160, 161, 184, 162, 163, 186, 164, 188, 166, 167, 190, 169, 170, 193, 171, 172, 195, 173, 174, 197, 175, 176, 177, 178, 201, 179, 180, 203, 181, 182, 205, 183, 184, 207, 185, 186, 209, 211, 189, 190, 191, 215, 193, 194, 196, 197, 220, 198, 199, 222, 200, 201, 224, 202, 203, 226, 204, 205, 206, 207, 230, 208, 209, 232, 210, 211, 234, 212, 214, 215, 238, 217, 218, 241, 219, 243, 221, 222, 245, 223, 247, 225, 226, 249, 227, 251, 229, 230, 253, 232, 255, 233, 234, 257, 235, 236, 237, 238, 261, 239, 263, 241, 264, 242, 243, 244, 245, 246, 247, 270, 249, 272, 250, 274, 252, 253, 276, 254, 255, 256, 257, 280, 258, 259, 260, 261, 284, 262, 263, 286, 265, 266, 267, 268, 269, 270, 271, 272, 274, 276, 278, 279, 280, 281, 282, 283, 284, 285, 286, 1, 1, 2, 3, 3, 5, 5, 6, 7, 7, 8, 9, 9, 10, 11, 12, 14, 15, 15, 16, 17, 18, 19, 19, 20, 21, 21, 22, 23, 24, 25, 25, 26, 27, 28, 29, 30, 31, 32, 33, 34, 35, 35, 36, 37, 37, 38, 39, 39, 40, 41, 41, 42, 43, 44, 45, 46, 47, 48, 49, 50, 50, 51, 52, 53, 54, 54, 55, 56, 56, 57, 58, 58, 59, 60, 60, 62, 62, 64, 64, 65, 66, 67, 68, 68, 69, 70, 70, 72, 73, 73, 74, 75, 76, 77, 77, 78, 79, 79, 80, 81, 81, 82, 83, 83, 84, 85, 85, 86, 87, 88, 89, 89, 90, 91, 91, 93, 93, 94, 95, 96, 96, 97, 98, 98, 99, 100, 100, 101, 102, 102, 103, 104, 104, 105, 106, 106, 107, 108, 108, 109, 110, 110, 111, 112, 113, 114, 114, 115, 116, 117, 118, 120, 121, 121, 122, 123, 123, 125, 125, 126, 127, 127, 128, 129, 129, 130, 131, 131, 133, 133, 134, 135, 135, 136, 137, 137, 138, 139, 140, 141, 141, 142, 143, 144, 146, 146, 147, 148, 148, 149, 150, 150, 151, 152, 152, 153, 154, 154, 155, 156, 156, 157, 158, 158, 159, 160, 160, 161, 162, 162, 163, 164, 165, 166, 166, 168, 169, 169, 170, 171, 171, 172, 173, 173, 174, 175, 176, 177, 177, 178, 179, 179, 180, 181, 181, 182, 183, 183, 184, 185, 185, 187, 188, 189, 190, 191, 192, 193, 195, 196, 196, 197, 198, 198, 199, 200, 200, 201, 202, 202, 203, 204, 205, 206, 206, 207, 208, 208, 209, 210, 210, 211, 213, 214, 214, 216, 217, 217, 218, 219, 220, 221, 221, 222, 223, 224, 225, 225, 226, 227, 228, 229, 229, 231, 231, 232, 233, 233, 234, 235, 236, 237, 237, 238, 239, 240, 240, 241, 242, 243, 244, 245, 246, 246, 248, 248, 249, 250, 251, 252, 252, 253, 254, 255, 256, 256, 257, 258, 259, 260, 260, 261, 262, 262, 264, 265, 266, 267, 268, 269, 270, 271, 273, 275, 277, 278, 279, 280, 281, 282, 283, 284, 285];
L = [1, 1, 1, 1, 1, 1, 1, 1, 1, 1, 1, 1, 1, 1, 1, 1, 1, 1, 1, 1, 1, 1, 1, 1, 1, 1, 1, 1, 1, 1, 1, 1, 1, 1, 1, 1, 1, 1, 1, 1, 1, 1, 1, 1, 1, 1, 1, 1, 1, 1, 1, 1, 1, 1, 1, 1, 1, 1, 1, 1, 1, 1, 1, 1, 1, 1, 1, 1, 1, 1, 1, 1, 1, 1, 1, 1, 1, 1, 1, 1, 1, 1, 1, 1, 1, 1, 1, 1, 1, 1, 1, 1, 1, 1, 1, 1, 1, 1, 1, 1, 1, 1, 1, 1, 1, 1, 1, 1, 1, 1, 1, 1, 1, 1, 1, 1, 1, 1, 1, 1, 1, 1, 1, 1, 1, 1, 1, 1, 1, 1, 1, 1, 1, 1, 1, 1, 1, 1, 1, 1, 1, 1, 1, 1, 1, 1, 1, 1, 1, 1, 1, 1, 1, 1, 1, 1, 1, 1, 1, 1, 1, 1, 1, 1, 1, 1, 1, 1, 1, 1, 1, 1, 1, 1, 1, 1, 1, 1, 1, 1, 1, 1, 1, 1, 1, 1, 1, 1, 1, 1, 1, 1, 1, 1, 1, 1, 1, 1, 1, 1, 1, 1, 1, 1, 1, 1, 1, 1, 1, 1, 1, 1, 1, 1, 1, 1, 1, 1, 1, 1, 1, 1, 1, 1, 1, 1, 1, 1, 1, 1, 1, 1, 1, 1, 1, 1, 1, 1, 1, 1, 1, 1, 1, 1, 1, 1, 1, 1, 1, 1, 1, 1, 1, 1, 1, 1, 1, 1, 1, 1, 1, 1, 1, 1, 1, 1, 1, 1, 1, 1, 1, 1, 1, 1, 1, 1, 1, 1, 1, 1, 1, 1, 1, 1, 1, 1, 1, 1, 1, 1, 1, 1, 1, 1, 1, 1, 1, 1, 1, 1, 1, 1, 1, 1, 1, 1, 1, 1, 1, 1, 1, 1, 1, 1, 1, 1, 1, 1, 1, 1, 1, 1, 1, 1, 1, 1, 1, 1, 1, 1, 1, 1, 1, 1, 1, 1, 1, 1, 1, 1, 1, 1, 1, 1, 1, 1, 1, 1, 1, 1, 1, 1, 1, 1, 1, 1, 1, 1, 1, 1, 1, 1, 1, 1, 1, 1, 1, 1, 1, 1, 1, 1, 1, 1, 1, 1, 1, 1, 1, 1, 1, 1, 1, 1, 1, 1, 1, 1, 1, 1, 1, 1, 1, 1, 1, 1, 1, 1, 1, 1, 1, 1, 1, 1, 1, 1, 1, 1, 1, 1, 1, 1, 1, 1, 1, 1, 1, 1, 1, 1, 1, 1, 1, 1, 1, 1, 1, 1, 1, 1, 1, 1, 1, 1, 1, 1, 1, 1, 1, 1, 1, 1, 1, 1, 1, 1, 1, 1, 1, 1, 1, 1, 1, 1, 1, 1, 1, 1, 1, 1, 1, 1, 1, 1, 1, 1, 1, 1, 1, 1, 1, 1, 1, 1, 1, 1, 1, 1, 1, 1, 1, 1, 1, 1, 1, 1, 1, 1, 1, 1, 1, 1, 1, 1, 1, 1, 1, 1, 1, 1, 1, 1, 1, 1, 1, 1, 1, 1, 1, 1, 1, 1, 1, 1, 1, 1, 1, 1, 1, 1, 1, 1, 1, 1, 1, 1, 1, 1, 1, 1, 1, 1, 1, 1, 1, 1, 1, 1, 1, 1, 1, 1, 1, 1, 1, 1, 1, 1, 1, 1, 1, 1, 1, 1, 1, 1, 1, 1, 1, 1, 1, 1, 1, 1, 1, 1, 1, 1, 1, 1, 1, 1, 1, 1, 1, 1, 1, 1, 1, 1, 1, 1, 1, 1, 1, 1, 1, 1, 1, 1, 1, 1, 1, 1, 1, 1, 1, 1, 1, 1, 1, 1, 1, 1, 1, 1, 1, 1, 1, 1, 1, 1, 1, 1, 1, 1, 1, 1, 1, 1, 1, 1, 1, 1, 1, 1, 1, 1, 1, 1, 1, 1, 1, 1, 1, 1, 1, 1, 1, 1, 1, 1, 1, 1, 1, 1, 1, 1, 1, 1, 1, 1, 1, 1, 1, 1, 1, 1, 1, 1, 1, 1, 1, 1, 1, 1, 1, 1, 1, 1, 1, 1, 1, 1, 1, 1, 1, 1, 1, 1, 1, 1, 1, 1, 1, 1, 1, 1, 1, 1, 1, 1, 1, 1, 1, 1, 1, 1, 1, 1, 1, 1, 1, 1, 1, 1, 1, 1];
T = [1, 1, 1, 1, 1, 1, 1, 1, 1, 1, 1, 1, 1, 1, 1, 1, 1, 1, 1, 1, 1, 1, 1, 1, 1, 1, 1, 1, 1, 1, 1, 1, 1, 1, 1, 1, 1, 1, 1, 1, 1, 1, 1, 1, 1, 1, 1, 1, 1, 1, 1, 1, 1, 1, 1, 1, 1, 1, 1, 1, 1, 1, 1, 1, 1, 1, 1, 1, 1, 1, 1, 1, 1, 1, 1, 1, 1, 1, 1, 1, 1, 1, 1, 1, 1, 1, 1, 1, 1, 1, 1, 1, 1, 1, 1, 1, 1, 1, 1, 1, 1, 1, 1, 1, 1, 1, 1, 1, 1, 1, 1, 1, 1, 1, 1, 1, 1, 1, 1, 1, 1, 1, 1, 1, 1, 1, 1, 1, 1, 1, 1, 1, 1, 1, 1, 1, 1, 1, 1, 1, 1, 1, 1, 1, 1, 1, 1, 1, 1, 1, 1, 1, 1, 1, 1, 1, 1, 1, 1, 1, 1, 1, 1, 1, 1, 1, 1, 1, 1, 1, 1, 1, 1, 1, 1, 1, 1, 1, 1, 1, 1, 1, 1, 1, 1, 1, 1, 1, 1, 1, 1, 1, 1, 1, 1, 1, 1, 1, 1, 1, 1, 1, 1, 1, 1, 1, 1, 1, 1, 1, 1, 1, 1, 1, 1, 1, 1, 1, 1, 1, 1, 1, 1, 1, 1, 1, 1, 1, 1, 1, 1, 1, 1, 1, 1, 1, 1, 1, 1, 1, 1, 1, 1, 1, 1, 1, 1, 1, 1, 1, 1, 1, 1, 1, 1, 1, 1, 1, 1, 1, 1, 1, 1, 1, 1, 1, 1, 1, 1, 1, 1, 1, 1, 1, 1, 1, 1, 1, 1, 1, 1, 1, 1, 1, 1, 1, 1, 1, 1, 1, 1, 1, 1, 1, 1, 1, 1, 1, 1, 1, 1, 1, 1, 1, 1, 1, 1, 1, 1, 1, 1, 1, 1, 1, 1, 1, 1, 1, 1, 1, 1, 1, 1, 1, 1, 1, 1, 1, 1, 1, 1, 1, 1, 1, 1, 1, 1, 1, 1, 1, 1, 1, 1, 1, 1, 1, 1, 1, 1, 1, 1, 1, 1, 1, 1, 1, 1, 1, 1, 1, 1, 1, 1, 1, 1, 1, 1, 1, 1, 1, 1, 1, 1, 1, 1, 1, 1, 1, 1, 1, 1, 1, 1, 1, 1, 1, 1, 1, 1, 1, 1, 1, 1, 1, 1, 1, 1, 1, 1, 1, 1, 1, 1, 1, 1, 1, 1, 1, 1, 1, 1, 1, 1, 1, 1, 1, 1, 1, 1, 1, 1, 1, 1, 1, 1, 1, 1, 1, 1, 1, 1, 1, 1, 1, 1, 1, 1, 1, 1, 1, 1, 1, 1, 1, 1, 1, 1, 1, 1, 1, 1, 1, 1, 1, 1, 1, 1, 1, 1, 1, 1, 1, 1, 1, 1, 1, 1, 1, 1, 1, 1, 1, 1, 1, 1, 1, 1, 1, 1, 1, 1, 1, 1, 1, 1, 1, 1, 1, 1, 1, 1, 1, 1, 1, 1, 1, 1, 1, 1, 1, 1, 1, 1, 1, 1, 1, 1, 1, 1, 1, 1, 1, 1, 1, 1, 1, 1, 1, 1, 1, 1, 1, 1, 1, 1, 1, 1, 1, 1, 1, 1, 1, 1, 1, 1, 1, 1, 1, 1, 1, 1, 1, 1, 1, 1, 1, 1, 1, 1, 1, 1, 1, 1, 1, 1, 1, 1, 1, 1, 1, 1, 1, 1, 1, 1, 1, 1, 1, 1, 1, 1, 1, 1, 1, 1, 1, 1, 1, 1, 1, 1, 1, 1, 1, 1, 1, 1, 1, 1, 1, 1, 1, 1, 1, 1, 1, 1, 1, 1, 1, 1, 1, 1, 1, 1, 1, 1, 1, 1, 1, 1, 1, 1, 1, 1, 1, 1, 1, 1, 1, 1, 1, 1, 1, 1, 1, 1, 1, 1, 1, 1, 1, 1, 1, 1, 1, 1, 1, 1, 1, 1, 1, 1, 1, 1, 1, 1, 1, 1, 1, 1, 1, 1, 1, 1, 1, 1, 1, 1, 1, 1, 1, 1, 1, 1, 1, 1, 1, 1, 1, 1, 1, 1, 1, 1, 1, 1, 1, 1, 1, 1, 1, 1, 1, 1, 1, 1, 1, 1, 1, 1, 1, 1, 1, 1, 1, 1, 1, 1, 1, 1, 1, 1, 1, 1, 1, 1, 1];
Lower_Bound = [0, 1, 2, 3, 6, 7, 8, 9, 10, 11, 12, 13, 14, 19, 18, 19, 20, 21, 22, 23, 24, 25, 26, 1, 2, 3, 4, 5, 6, 7, 8, 11, 12, 13, 14, 15, 16, 17, 18, 19, 20, 21, 22, 25, 26, 27, 28, 8, 3, 4, 5, 6, 7, 8, 9, 10, 11, 12, 13, 14, 15, 18, 19, 22, 21, 22, 23, 24, 25, 26, 27, 7, 6, 5, 6, 7, 8, 9, 10, 11, 12, 13, 14, 15, 16, 17, 18, 23, 22, 23, 24, 25, 28, 27, 28, 8, 7, 8, 9, 10, 9, 10, 11, 12, 13, 14, 15, 16, 17, 18, 19, 20, 21, 22, 23, 24, 29, 30, 29, 9, 10, 9, 10, 11, 12, 11, 12, 13, 14, 15, 16, 17, 20, 19, 20, 21, 22, 23, 24, 25, 26, 27, 28, 16, 11, 12, 11, 12, 13, 14, 13, 14, 15, 16, 17, 18, 19, 20, 21, 22, 23, 24, 25, 26, 27, 28, 29, 15, 14, 13, 14, 13, 14, 15, 16, 15, 16, 17, 18, 19, 20, 21, 22, 23, 24, 25, 28, 27, 28, 29, 30, 16, 15, 16, 15, 16, 15, 16, 17, 18, 17, 18, 19, 20, 21, 22, 23, 24, 25, 26, 27, 28, 33, 32, 31, 25, 24, 23, 22, 17, 18, 17, 18, 19, 20, 19, 20, 25, 24, 23, 26, 25, 26, 27, 28, 29, 30, 31, 32, 24, 23, 22, 21, 20, 19, 20, 19, 22, 21, 22, 21, 22, 23, 24, 25, 26, 27, 28, 29, 30, 31, 32, 33, 25, 26, 25, 24, 23, 22, 21, 22, 23, 24, 23, 24, 23, 30, 29, 28, 27, 28, 29, 30, 31, 32, 33];
Upper_Bound = [0, 1, 2, 3, 6, 7, 8, 9, 10, 11, 12, 13, 14, 19, 18, 19, 20, 21, 22, 23, 24, 25, 26, 1, 2, 3, 4, 5, 6, 7, 8, 11, 12, 13, 14, 15, 16, 17, 18, 19, 20, 21, 22, 25, 26, 27, 28, 8, 3, 4, 5, 6, 7, 8, 9, 10, 11, 12, 13, 14, 15, 18, 19, 22, 21, 22, 23, 24, 25, 26, 27, 7, 6, 5, 6, 7, 8, 9, 10, 11, 12, 13, 14, 15, 16, 17, 18, 23, 22, 23, 24, 25, 28, 27, 28, 8, 7, 8, 9, 10, 9, 10, 11, 12, 13, 14, 15, 16, 17, 18, 19, 20, 21, 22, 23, 24, 29, 30, 29, 9, 10, 9, 10, 11, 12, 11, 12, 13, 14, 15, 16, 17, 20, 19, 20, 21, 22, 23, 24, 25, 26, 27, 28, 16, 11, 12, 11, 12, 13, 14, 13, 14, 15, 16, 17, 18, 19, 20, 21, 22, 23, 24, 25, 26, 27, 28, 29, 15, 14, 13, 14, 13, 14, 15, 16, 15, 16, 17, 18, 19, 20, 21, 22, 23, 24, 25, 28, 27, 28, 29, 30, 16, 15, 16, 15, 16, 15, 16, 17, 18, 17, 18, 19, 20, 21, 22, 23, 24, 25, 26, 27, 28, 33, 32, 31, 25, 24, 23, 22, 17, 18, 17, 18, 19, 20, 19, 20, 25, 24, 23, 26, 25, 26, 27, 28, 29, 30, 31, 32, 24, 23, 22, 21, 20, 19, 20, 19, 22, 21, 22, 21, 22, 23, 24, 25, 26, 27, 28, 29, 30, 31, 32, 33, 25, 26, 25, 24, 23, 22, 21, 22, 23, 24, 23, 24, 23, 30, 29, 28, 27, 28, 29, 30, 31, 32, 33];
Start = 1;
End = 286;
Time = 33;
